p edge 75 832
e 1 2
e 1 5
e 1 16
e 1 18
e 1 21
e 1 22
e 1 26
e 1 32
e 1 33
e 1 39
e 1 41
e 1 51
e 1 52
e 1 56
e 1 58
e 1 63
e 1 64
e 1 68
e 1 69
e 1 72
e 2 10
e 2 13
e 2 14
e 2 23
e 2 26
e 2 27
e 2 28
e 2 29
e 2 30
e 2 31
e 2 33
e 2 35
e 2 37
e 2 45
e 2 48
e 2 52
e 2 53
e 2 61
e 2 63
e 2 66
e 2 69
e 3 17
e 3 19
e 3 21
e 3 23
e 3 25
e 3 28
e 3 31
e 3 35
e 3 38
e 3 42
e 3 43
e 3 55
e 3 59
e 3 61
e 3 62
e 3 68
e 3 71
e 4 6
e 4 8
e 4 9
e 4 10
e 4 12
e 4 17
e 4 27
e 4 28
e 4 30
e 4 31
e 4 32
e 4 35
e 4 42
e 4 43
e 4 47
e 4 48
e 4 52
e 4 54
e 4 60
e 4 61
e 4 63
e 4 64
e 4 65
e 4 67
e 4 69
e 4 74
e 5 7
e 5 8
e 5 13
e 5 16
e 5 18
e 5 19
e 5 24
e 5 33
e 5 34
e 5 35
e 5 36
e 5 37
e 5 38
e 5 41
e 5 42
e 5 45
e 5 49
e 5 52
e 5 54
e 5 55
e 5 59
e 5 65
e 5 68
e 5 69
e 6 12
e 6 15
e 6 18
e 6 20
e 6 22
e 6 29
e 6 36
e 6 37
e 6 40
e 6 41
e 6 44
e 6 47
e 6 55
e 6 68
e 6 74
e 6 75
e 7 9
e 7 12
e 7 16
e 7 18
e 7 20
e 7 25
e 7 39
e 7 41
e 7 43
e 7 44
e 7 46
e 7 49
e 7 50
e 7 60
e 7 63
e 7 69
e 8 9
e 8 10
e 8 24
e 8 26
e 8 32
e 8 33
e 8 34
e 8 35
e 8 37
e 8 39
e 8 44
e 8 45
e 8 47
e 8 48
e 8 49
e 8 52
e 8 57
e 8 58
e 8 63
e 8 65
e 8 67
e 8 69
e 8 71
e 8 72
e 9 12
e 9 26
e 9 41
e 9 43
e 9 45
e 9 50
e 9 52
e 9 56
e 9 62
e 9 67
e 9 68
e 9 71
e 9 72
e 10 11
e 10 15
e 10 23
e 10 24
e 10 28
e 10 30
e 10 32
e 10 33
e 10 34
e 10 38
e 10 45
e 10 47
e 10 48
e 10 49
e 10 52
e 10 56
e 10 58
e 10 60
e 10 62
e 10 65
e 10 66
e 10 71
e 10 73
e 10 75
e 11 12
e 11 16
e 11 19
e 11 28
e 11 32
e 11 33
e 11 34
e 11 35
e 11 42
e 11 43
e 11 45
e 11 51
e 11 52
e 11 53
e 11 54
e 11 55
e 11 57
e 11 59
e 11 61
e 11 64
e 11 66
e 11 68
e 11 72
e 11 74
e 12 13
e 12 15
e 12 16
e 12 23
e 12 26
e 12 32
e 12 33
e 12 34
e 12 36
e 12 46
e 12 49
e 12 59
e 12 60
e 12 61
e 12 62
e 12 66
e 12 68
e 12 71
e 12 73
e 12 75
e 13 16
e 13 17
e 13 19
e 13 20
e 13 21
e 13 27
e 13 37
e 13 40
e 13 45
e 13 47
e 13 48
e 13 50
e 13 53
e 13 57
e 13 58
e 13 63
e 13 64
e 13 66
e 13 67
e 13 68
e 13 69
e 13 73
e 13 75
e 14 16
e 14 32
e 14 33
e 14 35
e 14 37
e 14 39
e 14 47
e 14 48
e 14 51
e 14 53
e 14 54
e 14 56
e 14 59
e 14 61
e 14 63
e 14 69
e 14 72
e 15 18
e 15 20
e 15 21
e 15 24
e 15 25
e 15 29
e 15 30
e 15 38
e 15 46
e 15 47
e 15 48
e 15 51
e 15 59
e 15 60
e 15 62
e 15 65
e 15 66
e 15 68
e 15 69
e 15 71
e 15 73
e 15 74
e 16 17
e 16 18
e 16 20
e 16 23
e 16 27
e 16 37
e 16 39
e 16 41
e 16 42
e 16 46
e 16 47
e 16 50
e 16 52
e 16 53
e 16 62
e 16 63
e 16 67
e 16 68
e 16 73
e 16 74
e 17 26
e 17 28
e 17 35
e 17 36
e 17 48
e 17 54
e 17 58
e 17 61
e 17 66
e 17 70
e 17 71
e 17 72
e 17 73
e 18 21
e 18 23
e 18 25
e 18 27
e 18 32
e 18 33
e 18 34
e 18 36
e 18 37
e 18 39
e 18 46
e 18 52
e 18 55
e 18 56
e 18 57
e 18 60
e 18 63
e 18 68
e 18 69
e 19 31
e 19 38
e 19 39
e 19 47
e 19 48
e 19 49
e 19 51
e 19 52
e 19 54
e 19 55
e 19 61
e 19 65
e 19 72
e 19 75
e 20 25
e 20 28
e 20 29
e 20 30
e 20 33
e 20 42
e 20 53
e 20 55
e 20 57
e 20 59
e 20 67
e 20 68
e 20 70
e 20 72
e 21 23
e 21 31
e 21 40
e 21 41
e 21 44
e 21 49
e 21 50
e 21 54
e 21 56
e 21 68
e 21 72
e 21 75
e 22 24
e 22 34
e 22 35
e 22 39
e 22 43
e 22 50
e 22 58
e 22 61
e 22 63
e 22 67
e 22 69
e 22 70
e 22 71
e 22 72
e 23 24
e 23 34
e 23 36
e 23 39
e 23 41
e 23 44
e 23 45
e 23 52
e 23 53
e 23 56
e 23 59
e 23 60
e 23 68
e 23 69
e 23 75
e 24 31
e 24 35
e 24 36
e 24 37
e 24 38
e 24 40
e 24 41
e 24 44
e 24 45
e 24 52
e 24 53
e 24 62
e 24 63
e 24 75
e 25 26
e 25 28
e 25 32
e 25 33
e 25 36
e 25 37
e 25 42
e 25 43
e 25 45
e 25 48
e 25 49
e 25 51
e 25 53
e 25 58
e 25 67
e 25 71
e 26 27
e 26 28
e 26 30
e 26 31
e 26 33
e 26 34
e 26 37
e 26 41
e 26 44
e 26 47
e 26 54
e 26 58
e 26 65
e 26 66
e 26 69
e 26 70
e 26 75
e 27 29
e 27 30
e 27 32
e 27 33
e 27 39
e 27 44
e 27 47
e 27 55
e 27 59
e 27 68
e 27 69
e 27 70
e 27 71
e 27 72
e 27 73
e 27 75
e 28 31
e 28 35
e 28 39
e 28 43
e 28 47
e 28 49
e 28 53
e 28 55
e 28 59
e 28 66
e 28 71
e 28 75
e 29 30
e 29 31
e 29 32
e 29 35
e 29 43
e 29 44
e 29 50
e 29 51
e 29 54
e 29 59
e 29 60
e 29 62
e 29 64
e 29 65
e 29 67
e 30 32
e 30 37
e 30 55
e 30 57
e 30 62
e 30 68
e 30 69
e 30 70
e 30 74
e 31 33
e 31 36
e 31 37
e 31 38
e 31 43
e 31 48
e 31 50
e 31 51
e 31 53
e 31 54
e 31 55
e 31 57
e 31 65
e 31 71
e 31 72
e 31 74
e 31 75
e 32 36
e 32 37
e 32 40
e 32 42
e 32 45
e 32 47
e 32 52
e 32 53
e 32 54
e 32 59
e 32 61
e 32 63
e 33 36
e 33 37
e 33 41
e 33 44
e 33 47
e 33 48
e 33 56
e 33 57
e 33 61
e 33 63
e 33 67
e 33 68
e 33 69
e 33 71
e 33 72
e 33 73
e 33 74
e 34 36
e 34 37
e 34 43
e 34 52
e 34 54
e 34 56
e 34 58
e 34 73
e 34 74
e 35 36
e 35 40
e 35 41
e 35 43
e 35 44
e 35 46
e 35 47
e 35 51
e 35 53
e 35 54
e 35 60
e 35 65
e 35 67
e 35 70
e 35 73
e 36 41
e 36 45
e 36 46
e 36 52
e 36 57
e 36 63
e 36 67
e 36 70
e 36 73
e 36 75
e 37 39
e 37 41
e 37 45
e 37 47
e 37 49
e 37 51
e 37 58
e 37 62
e 37 63
e 37 64
e 37 65
e 37 68
e 37 73
e 38 44
e 38 48
e 38 50
e 38 53
e 38 54
e 38 62
e 38 73
e 39 41
e 39 45
e 39 47
e 39 51
e 39 52
e 39 54
e 39 59
e 39 62
e 39 65
e 39 72
e 39 73
e 40 41
e 40 43
e 40 50
e 40 56
e 40 59
e 40 68
e 40 69
e 40 74
e 41 43
e 41 46
e 41 48
e 41 49
e 41 50
e 41 51
e 41 52
e 41 54
e 41 66
e 41 67
e 41 70
e 41 73
e 41 74
e 42 44
e 42 47
e 42 50
e 42 51
e 42 53
e 42 57
e 42 59
e 42 68
e 42 71
e 42 75
e 43 46
e 43 50
e 43 54
e 43 55
e 43 56
e 43 57
e 43 58
e 43 60
e 43 65
e 43 68
e 43 70
e 43 74
e 44 52
e 44 59
e 44 60
e 44 62
e 44 66
e 44 68
e 44 72
e 45 49
e 45 52
e 45 54
e 45 55
e 45 58
e 45 61
e 45 62
e 45 63
e 45 64
e 45 65
e 45 66
e 45 71
e 45 72
e 46 59
e 46 60
e 46 61
e 46 62
e 46 69
e 46 70
e 47 50
e 47 53
e 47 58
e 47 60
e 47 63
e 47 69
e 47 75
e 48 50
e 48 51
e 48 54
e 48 56
e 48 57
e 48 64
e 48 67
e 48 68
e 48 70
e 49 54
e 49 56
e 49 57
e 49 65
e 49 69
e 49 70
e 49 71
e 50 59
e 50 60
e 50 63
e 50 66
e 50 67
e 50 69
e 50 71
e 50 74
e 50 75
e 51 53
e 51 55
e 51 56
e 51 58
e 51 61
e 51 64
e 51 68
e 51 72
e 51 73
e 52 66
e 52 70
e 53 57
e 53 58
e 53 62
e 53 63
e 53 66
e 53 69
e 53 72
e 53 73
e 53 74
e 53 75
e 54 55
e 54 56
e 54 58
e 54 61
e 54 62
e 54 68
e 54 69
e 54 73
e 55 61
e 55 64
e 55 73
e 56 58
e 56 62
e 56 63
e 56 64
e 56 66
e 56 70
e 56 72
e 57 58
e 57 62
e 57 64
e 57 66
e 57 75
e 58 59
e 58 62
e 58 66
e 58 68
e 58 73
e 58 75
e 59 61
e 59 67
e 59 68
e 59 70
e 60 63
e 60 68
e 61 62
e 61 65
e 61 66
e 61 67
e 61 71
e 61 74
e 61 75
e 62 65
e 62 66
e 62 68
e 62 70
e 62 71
e 62 72
e 62 75
e 63 66
e 63 67
e 64 69
e 64 71
e 64 72
e 65 67
e 65 69
e 65 71
e 65 72
e 66 68
e 66 70
e 67 68
e 67 71
e 67 72
e 68 70
e 68 72
e 68 73
e 68 74
e 69 72
e 70 71
e 71 73
e 72 73
e 73 75
